NAME : netgen22-2_22
COMMENT : Generated using the function generateClusteredNetwork from the R-package netgen (Bossek,2015) - Number of clusters: 2
TYPE : TSP
DIMENSION : 22
EDGE_WEIGHT_TYPE : EUC_2D
NODE_COORD_SECTION
1 89.4220625193 83.0565930874
2 98.7998232046 69.0388216043
3 84.2786493699 77.9950757914
4 89.1471358422 87.7488133241
5 95.8415110404 96.5718046748
6 85.5005812531 75.2896939153
7 83.9426900284 65.5595926088
8 77.5113727402 81.0435873413
9 90.7509639419 61.6954735459
10 84.7212036271 78.8801880437
11 86.7758656914 84.965762984
12 33.5785334943 40.0064210901
13 35.968503706 28.0864425173
14 32.6382801543 40.4824935946
15 46.9105379501 37.4808426548
16 39.8460625628 44.0241082805
17 24.6341984468 33.4944179697
18 25.5833494194 31.7831095731
19 30.0566556622 28.8345855636
20 42.234596265 33.7595114175
21 21.8798511567 30.3808141375
22 22.983372478 46.868502976
EOF
